
Gurobi 11.0.3 (linux64) logging started Mon 18 Nov 2024 10:03:23 PM CST

Set parameter LogFile to value "/home/dlcole3/graph_abstraction/hierarchical_graphs/git_storage/CS1/HP_low_reserves/gurobi_logs/serial/logfile_ST15_7.log"

Gurobi 11.0.3 (linux64) logging started Mon 18 Nov 2024 10:11:16 PM CST

Set parameter LogFile to value "/home/dlcole3/graph_abstraction/hierarchical_graphs/git_storage/CS1/HP_low_reserves/gurobi_logs/serial/logfile_ST15_7.log"
Gurobi Optimizer version 11.0.3 build v11.0.3rc0 (linux64 - "Ubuntu 18.04.3 LTS")

CPU model: Intel(R) Xeon(R) CPU E5-2698 v4 @ 2.20GHz, instruction set [SSE2|AVX|AVX2]
Thread count: 40 physical cores, 80 logical processors, using up to 20 threads

Optimize a model with 29168 rows, 50688 columns and 136175 nonzeros
Model fingerprint: 0x0e76a90e
Variable types: 46944 continuous, 3744 integer (3744 binary)
Coefficient statistics:
  Matrix range     [6e-01, 2e+04]
  Objective range  [2e+00, 2e+04]
  Bounds range     [5e-02, 2e+05]
  RHS range        [5e-03, 7e+03]
Presolve removed 13205 rows and 38050 columns
Presolve time: 0.36s
Presolved: 15963 rows, 12638 columns, 66881 nonzeros
Variable types: 9658 continuous, 2980 integer (2980 binary)
Found heuristic solution: objective 181939.13899
Found heuristic solution: objective 149811.62987

Root relaxation: objective 4.566512e+04, 8371 iterations, 0.34 seconds (0.24 work units)

    Nodes    |    Current Node    |     Objective Bounds      |     Work
 Expl Unexpl |  Obj  Depth IntInf | Incumbent    BestBd   Gap | It/Node Time

     0     0 45665.1167    0    5 149811.630 45665.1167  69.5%     -    1s
H    0     0                    46787.953521 45665.1167  2.40%     -    1s
H    0     0                    46787.953501 45665.1167  2.40%     -    1s
     0     0 45665.1167    0    5 46787.9535 45665.1167  2.40%     -    1s
     0     0 45672.1399    0    5 46787.9535 45672.1399  2.38%     -    1s
     0     0 45672.1399    0    2 46787.9535 45672.1399  2.38%     -    2s
     0     0 45672.1399    0    2 46787.9535 45672.1399  2.38%     -    2s
     0     2 45672.1399    0    2 46787.9535 45672.1399  2.38%     -    2s
H   45    25                    46755.035601 45841.7485  1.95%   5.6    3s
H   46    25                    46749.301104 45841.7485  1.94%   5.7    3s
H   63    32                    46726.979202 45845.9547  1.89%   5.0    3s
H   74    31                    46345.111728 45851.6175  1.06%   5.0    3s
H   89    23                    46173.493142 45851.6175  0.70%   4.8    3s
H  110    13                    45948.508136 45851.6175  0.21%   4.4    3s

Explored 135 nodes (15608 simplex iterations) in 3.33 seconds (1.94 work units)
Thread count was 20 (of 80 available processors)

Solution count 10: 45948.5 45948.5 46173.5 ... 181939

Optimal solution found (tolerance 3.00e-03)
Best objective 4.594850813662e+04, best bound 4.586783670254e+04, gap 0.1756%

User-callback calls 1902, time in user-callback 0.00 sec
